72952157450997525715015,14,1,2,012,10,1,2,03,13,1,2,06,4,1,2,011,2,1,2,014,8,1,2,013,13,1,2,010,5,1,2,06,10,1,2,015,7,1,2,08,2,1,2,07,2,1,2,02,5,1,2,010,8,1,2,04,15,1,2,05,6,1,2,014,2,1,2,010,9,1,2,08,6,1,2,02,13,1,2,014,3,1,2,03,9,1,2,014,6,1,2,05,1,1,2,01,14,1,2,015,14,1,2,01,10,1,2,07,5,1,2,015,5,1,2,05,1,1,2,015,1,1,2,09,8,1,2,010,14,1,2,02,2,1,2,015,4,1,2,013,9,1,2,06,9,1,2,015,10,1,2,02,13,1,2,07,15,1,2,014,14,1,2,02,4,1,2,010,10,1,2,06,1,1,2,015,4,1,2,01,4,1,2,03,8,1,2,014,11,1,2,01,4,1,2,09,12,1,2,0